smt/acc-fold/bench/smt/append_dll_slk-9.smt
(set-logic QF_S)

(declare-sort node2 0)
(declare-fun val () (Field node2 int))
(declare-fun prev () (Field node2 node2))
(declare-fun next () (Field node2 node2))

(declare-fun dll ((?in node2) (?p node2))
Space (tospace
(or
(= ?in nil)
(exists ((?p_21 node2)(?self_22 node2)) (tobool (ssep (pto ?in (sref (ref val ?Anon_13) (ref prev ?p_21) (ref next ?q) )) (dll ?q ?self_22)))
)))













(declare-fun p () TVar[530])
(declare-fun self_1128 () node2)
(declare-fun p_1029 () node2)
(declare-fun q () node2)
(declare-fun y () node2)
(declare-fun xprm () node2)
(declare-fun x () node2)
(declare-fun v_bool_20_994prm () boolean)
(declare-fun next_21_1042 () node2)
(declare-fun q_1032 () node2)
(declare-fun v_bool_22_989prm () boolean)
(declare-fun prev_23_1131 () TVar[530])
(declare-fun p_1127 () TVar[530])
(declare-fun Anon_1031 () int)
(declare-fun yprm () node2)
(declare-fun Anon_1129 () int)
(declare-fun q_1130 () node2)
(declare-fun self_1030 () node2)


(assert 
(and 
(= p_1127 p)
(= self_1128 y')
(= p_1029 q)
(= self_1030 x')
(distinct x nil)
(= y' y)
(= x' x)
(= q_1032 nil)
bvar(= q_1032 nil)
bvar(= next_21_1042 q_1032)
(distinct y' nil)
bvar(distinct y' nil)
bvar(= prev_23_1131 p_1127)
(tobool (ssep 
(dll q_1032 self_1030)
(dll q_1130 self_1128)
(pto xprm (sref (ref val Anon_1031) (ref prev p_1029) (ref next y') ))
(pto yprm (sref (ref val Anon_1129) (ref prev x') (ref next q_1130) ))
emp
) )
)
)

(assert (not 
(exists ((q_48 node2)(Anon_1145 TVar[1282])(q_1146 TVar[1283])(Anon_1154 TVar[1284])(q_1155 TVar[1285])) (tobool (ssep (dll x q_48) (dll q_1032 self_1030)))

))

(check-sat)